InboundTrucks  = 8;
OutboundTrucks = 5;
InboundDoors   = 4;
OutboundDoors  = 4;
ReleaseTime    = [29,12,58,22,54,34,59,18];
UnloadTime     = [8,22,14,31,38,26,20,15];
LoadTime       = [17,30,18,6,25];
TransferTime   = [| 13,0,0,18,22 | 14,0,0,0,16 | 11,0,0,19,0 | 0,19,0,0,0 | 0,0,42,21,0 | 0,0,46,38,0 | 0,0,0,0,21 | 0,45,0,0,0 |];
